\ Model paper_to_referee
\ LP format - for model browsing. Use MPS format to capture full model detail.
Maximize
  10 p1r1 + 2 p1r2 + 2 p1r3 + 2 p1r4 + 2 p1r5 + 10 p1r6 + 2 p1r7 + 2 p1r8
   + 2 p1r9 + 2 p1r10 + 2 p1r11 + 2 p1r12 + 2 p1r13 + 2 p1r14 + 2 p1r15
   + 2 p1r16 + 2 p1r17 + 2 p1r18 + 2 p1r19 + 10 p1r20 + 2 p1r21 + 2 p2r1
   + 2 p2r2 + 8 p2r3 + 8 p2r4 + 2 p2r5 + 10 p2r6 + 2 p2r7 + 2 p2r8 + 8 p2r9
   + 10 p2r10 + 2 p2r11 + 2 p2r12 + 10 p2r13 + 10 p2r14 + 10 p2r15
   + 2 p2r16 + 2 p2r17 + 2 p2r18 + 2 p2r19 + 2 p2r20 + 8 p2r21 + 2 p3r1
   + 2 p3r2 + 2 p3r3 + 10 p3r4 + 10 p3r5 + 2 p3r6 + 2 p3r7 + 10 p3r8
   + 2 p3r9 + 2 p3r10 + 10 p3r11 + 2 p3r12 + 2 p3r13 + 8 p3r14 + 2 p3r15
   + 2 p3r16 + 10 p3r17 + 2 p3r18 + 2 p3r19 + 8 p3r20 + 8 p3r21 + 2 p4r1
   + 2 p4r2 + 2 p4r3 + 8 p4r4 + 10 p4r5 + 2 p4r6 + 10 p4r7 + 2 p4r8
   + 2 p4r9 + 2 p4r10 + 2 p4r11 + 2 p4r12 + 2 p4r13 + 2 p4r14 + 2 p4r15
   + 2 p4r16 + 10 p4r17 + 2 p4r18 + 2 p4r19 + 2 p4r20 + 2 p4r21 + 2 p5r1
   + 2 p5r2 + 2 p5r3 + 2 p5r4 + 2 p5r6 + 2 p5r7 + 2 p5r9 + 2 p5r10
   + 10 p5r11 + 2 p5r12 + 2 p5r13 + 2 p5r14 + 2 p5r15 + 2 p5r16 + 2 p5r17
   + 2 p5r18 + 2 p5r19 + 2 p5r20 + 2 p5r21 + 2 p6r1 + 2 p6r2 + 8 p6r3
   + 10 p6r4 + 2 p6r5 + 10 p6r6 + 2 p6r7 + 2 p6r8 + 8 p6r9 + 8 p6r10
   + 2 p6r11 + 2 p6r12 + 8 p6r13 + 2 p6r14 + 8 p6r15 + 2 p6r17 + 10 p6r18
   + 2 p6r19 + 2 p6r20 + 2 p6r21 + 2 p7r1 + 2 p7r2 + 2 p7r4 + 2 p7r5
   + 10 p7r6 + 2 p7r7 + 10 p7r8 + 2 p7r9 + 10 p7r10 + 2 p7r11 + 2 p7r12
   + 2 p7r13 + 2 p7r14 + 2 p7r15 + 2 p7r16 + 2 p7r17 + 2 p7r18 + 2 p7r19
   + 2 p7r21 + 2 p8r1 + 2 p8r2 + 2 p8r3 + 8 p8r4 + 10 p8r5 + 2 p8r6
   + 2 p8r7 + 2 p8r8 + 2 p8r9 + 2 p8r10 + 2 p8r12 + 2 p8r13 + 2 p8r14
   + 2 p8r15 + 2 p8r16 + 8 p8r17 + 2 p8r18 + 2 p8r19 + 2 p8r20 + 2 p8r21
   + 2 p9r1 + 2 p9r2 + 2 p9r3 + 2 p9r4 + 2 p9r5 + 2 p9r6 + 2 p9r7 + 2 p9r8
   + 2 p9r9 + 2 p9r11 + 8 p9r12 + 2 p9r13 + 10 p9r14 + 8 p9r15 + 2 p9r16
   + 8 p9r17 + 10 p9r18 + 2 p9r19 + 2 p9r20 + 10 p10r1 + 2 p10r2 + 8 p10r3
   + 2 p10r4 + 8 p10r6 + 2 p10r7 + 8 p10r9 + 8 p10r10 + 2 p10r11
   + 10 p10r12 + 2 p10r13 + 10 p10r14 + 10 p10r15 + 2 p10r16 + 2 p10r17
   + 2 p10r18 + 10 p10r19 + 2 p10r20 + 8 p10r21 + 2 p11r1 + 2 p11r2
   + 2 p11r3 + 10 p11r4 + 2 p11r5 + 2 p11r6 + 2 p11r7 + 10 p11r8 + 2 p11r9
   + 2 p11r10 + 2 p11r11 + 2 p11r12 + 2 p11r13 + 2 p11r14 + 2 p11r15
   + 2 p11r16 + 2 p11r17 + 10 p11r18 + 10 p11r19 + 2 p11r20 + 2 p11r21
   + 2 p12r1 + 2 p12r2 + 2 p12r3 + 8 p12r4 + 2 p12r5 + 8 p12r6 + 2 p12r7
   + 10 p12r8 + 10 p12r9 + 10 p12r10 + 2 p12r11 + 8 p12r12 + 2 p12r13
   + 2 p12r14 + 2 p12r15 + 2 p12r16 + 2 p12r17 + 2 p12r18 + 10 p12r19
   + 2 p12r20 + 10 p12r21 + 2 p13r1 + 2 p13r2 + 2 p13r3 + 8 p13r4 + 2 p13r5
   + 2 p13r6 + 2 p13r7 + 2 p13r8 + 2 p13r9 + 2 p13r10 + 10 p13r11
   + 8 p13r12 + 2 p13r13 + 2 p13r14 + 2 p13r15 + 2 p13r16 + 10 p13r17
   + 2 p13r18 + 10 p13r19 + 8 p13r20 + 8 p13r21 + 2 p14r1 + 2 p14r2
   + 2 p14r3 + 2 p14r4 + 2 p14r5 + 8 p14r6 + 10 p14r7 + 2 p14r8 + 8 p14r9
   + 10 p14r10 + 2 p14r11 + 2 p14r12 + 2 p14r13 + 2 p14r15 + 2 p14r16
   + 2 p14r17 + 2 p14r18 + 10 p14r19 + 2 p14r20 + 2 p14r21 + 2 p15r1
   + 2 p15r2 + 10 p15r3 + 2 p15r4 + 2 p15r5 + 10 p15r6 + 2 p15r7 + 2 p15r8
   + 2 p15r9 + 2 p15r11 + 8 p15r12 + 2 p15r13 + 10 p15r14 + 8 p15r15
   + 10 p15r16 + 2 p15r17 + 2 p15r18 + 10 p15r19 + 2 p15r20 + 2 p16r1
   + 10 p16r2 + 2 p16r3 + 2 p16r4 + 2 p16r5 + 2 p16r6 + 2 p16r7 + 2 p16r8
   + 2 p16r9 + 2 p16r10 + 2 p16r11 + 2 p16r12 + 2 p16r13 + 8 p16r14
   + 2 p16r15 + 10 p16r16 + 2 p16r17 + 2 p16r18 + 2 p16r19 + 8 p16r20
   + 2 p16r21 + 2 p17r1 + 2 p17r2 + 2 p17r3 + 2 p17r4 + 2 p17r5 + 2 p17r7
   + 2 p17r8 + 2 p17r9 + 2 p17r10 + 2 p17r11 + 2 p17r12 + 2 p17r13
   + 2 p17r15 + 2 p17r16 + 2 p17r17 + 2 p17r18 + 2 p17r19 + 2 p17r20
   + 2 p17r21 + 2 p18r1 + 10 p18r3 + 2 p18r4 + 2 p18r5 + 8 p18r6 + 2 p18r7
   + 2 p18r8 + 2 p18r9 + 8 p18r10 + 2 p18r11 + 2 p18r12 + 10 p18r13
   + 2 p18r16 + 2 p18r17 + 2 p18r18 + 2 p18r19 + 2 p18r20 + 2 p18r21
   + 2 p19r3 + 2 p19r4 + 10 p19r6 + 10 p19r7 + 2 p19r9 + 2 p19r10
   + 10 p19r11 + 2 p19r12 + 2 p19r13 + 10 p19r14 + 8 p19r15 + 2 p19r16
   + 2 p19r17 + 2 p19r18 + 10 p19r19 + 10 p19r20 + 2 p19r21 + 2 p20r1
   + 2 p20r2 + 2 p20r3 + 8 p20r4 + 2 p20r5 + 2 p20r6 + 2 p20r7 + 2 p20r8
   + 10 p20r9 + 2 p20r11 + 10 p20r12 + 2 p20r13 + 10 p20r14 + 2 p20r15
   + 2 p20r16 + 2 p20r17 + 10 p20r18 + 2 p20r19 + 2 p20r20 + 2 p21r1
   + 2 p21r2 + 2 p21r3 + 8 p21r4 + 2 p21r5 + 10 p21r6 + 2 p21r7 + 2 p21r8
   + 10 p21r9 + 8 p21r10 + 2 p21r11 + 8 p21r12 + 2 p21r13 + 2 p21r14
   + 2 p21r15 + 10 p21r16 + 8 p21r17 + 2 p21r19 + 2 p21r20 + 2 p21r21
   + 2 p22r1 + 2 p22r2 + 2 p22r3 + 2 p22r4 + 2 p22r5 + 2 p22r6 + 2 p22r7
   + 2 p22r8 + 8 p22r9 + 2 p22r10 + 2 p22r11 + 2 p22r12 + 2 p22r13
   + 2 p22r14 + 2 p22r15 + 2 p22r17 + 10 p22r18 + 2 p22r19 + 2 p22r20
   + 2 p22r21 + 10 p23r1 + 2 p23r2 + 2 p23r3 + 2 p23r4 + 8 p23r5 + 10 p23r6
   + 10 p23r7 + 2 p23r8 + 2 p23r9 + 2 p23r10 + 8 p23r11 + 2 p23r12
   + 2 p23r13 + 8 p23r14 + 2 p23r16 + 2 p23r17 + 2 p23r18 + 10 p23r19
   + 10 p23r20 + 2 p23r21 + 2 p24r1 + 2 p24r2 + 2 p24r3 + 2 p24r5 + 2 p24r6
   + 2 p24r7 + 2 p24r8 + 2 p24r9 + 2 p24r10 + 2 p24r11 + 2 p24r12
   + 10 p24r13 + 2 p24r14 + 2 p24r15 + 2 p24r16 + 2 p24r17 + 2 p24r18
   + 2 p24r19 + 2 p24r21 + 2 p25r1 + 2 p25r2 + 8 p25r3 + 8 p25r4 + 8 p25r6
   + 10 p25r7 + 2 p25r8 + 2 p25r9 + 8 p25r10 + 8 p25r11 + 8 p25r12
   + 2 p25r13 + 2 p25r14 + 2 p25r15 + 2 p25r16 + 8 p25r17 + 2 p25r18
   + 10 p25r19 + 8 p25r20 + 2 p25r21 + 2 p26r1 + 10 p26r2 + 2 p26r3
   + 2 p26r4 + 2 p26r5 + 8 p26r6 + 2 p26r7 + 2 p26r8 + 2 p26r9 + 2 p26r10
   + 2 p26r11 + 2 p26r12 + 2 p26r13 + 8 p26r14 + 2 p26r15 + 2 p26r16
   + 2 p26r17 + 2 p26r18 + 2 p26r19 + 2 p26r20 + 8 p26r21 + 2 p27r1
   + 2 p27r2 + 2 p27r3 + 10 p27r4 + 2 p27r5 + 2 p27r6 + 2 p27r7 + 2 p27r8
   + 2 p27r10 + 2 p27r11 + 2 p27r12 + 2 p27r13 + 2 p27r14 + 2 p27r15
   + 2 p27r16 + 2 p27r17 + 2 p27r18 + 2 p27r19 + 8 p27r20 + 2 p27r21
   + 2 p28r1 + 10 p28r2 + 2 p28r3 + 2 p28r4 + 10 p28r5 + 2 p28r6 + 2 p28r7
   + 2 p28r8 + 2 p28r9 + 2 p28r10 + 10 p28r11 + 2 p28r12 + 8 p28r13
   + 2 p28r14 + 2 p28r15 + 2 p28r16 + 2 p28r17 + 2 p28r18 + 10 p28r19
   + 8 p28r20 + 10 p28r21 + 2 p29r1 + 2 p29r2 + 2 p29r3 + 2 p29r4 + 2 p29r5
   + 2 p29r6 + 2 p29r7 + 2 p29r8 + 10 p29r9 + 2 p29r10 + 2 p29r11
   + 2 p29r12 + 2 p29r13 + 2 p29r14 + 2 p29r15 + 2 p29r16 + 2 p29r17
   + 10 p29r18 + 2 p29r19 + 2 p29r20 + 2 p29r21 + 2 p30r1 + 2 p30r2
   + 2 p30r5 + 10 p30r6 + 2 p30r7 + 2 p30r8 + 2 p30r9 + 2 p30r10 + 2 p30r11
   + 2 p30r12 + 8 p30r13 + 2 p30r14 + 2 p30r15 + 2 p30r16 + 2 p30r17
   + 2 p30r18 + 2 p30r19 + 2 p30r21 + 2 p31r1 + 2 p31r2 + 8 p31r3 + 8 p31r4
   + 10 p31r5 + 10 p31r6 + 8 p31r7 + 2 p31r8 + 2 p31r9 + 8 p31r10
   + 2 p31r11 + 8 p31r12 + 2 p31r13 + 8 p31r14 + 2 p31r15 + 10 p31r16
   + 2 p31r17 + 2 p31r18 + 2 p31r19 + 2 p31r20 + 2 p31r21 + 2 p32r1
   + 2 p32r2 + 2 p32r3 + 2 p32r4 + 2 p32r5 + 8 p32r6 + 2 p32r7 + 2 p32r8
   + 2 p32r9 + 2 p32r10 + 2 p32r11 + 2 p32r12 + 2 p32r13 + 2 p32r14
   + 2 p32r15 + 2 p32r17 + 8 p32r18 + 2 p32r19 + 2 p32r20 + 2 p32r21
   + 2 p33r1 + 10 p33r2 + 8 p33r3 + 2 p33r4 + 2 p33r5 + 10 p33r6 + 2 p33r7
   + 2 p33r8 + 2 p33r9 + 8 p33r10 + 2 p33r11 + 2 p33r12 + 8 p33r13
   + 10 p33r14 + 10 p33r15 + 2 p33r16 + 2 p33r17 + 2 p33r18 + 2 p33r19
   + 2 p33r20 + 2 p33r21 + 10 p34r1 + 2 p34r2 + 2 p34r3 + 2 p34r4 + 2 p34r5
   + 2 p34r6 + 2 p34r7 + 2 p34r8 + 2 p34r9 + 8 p34r10 + 2 p34r11 + 2 p34r12
   + 8 p34r13 + 10 p34r14 + 8 p34r15 + 10 p34r16 + 2 p34r17 + 8 p34r18
   + 2 p34r19 + 2 p34r20 + 2 p34r21 + 2 p35r1 + 2 p35r2 + 10 p35r3
   + 10 p35r4 + 8 p35r5 + 2 p35r6 + 2 p35r7 + 2 p35r8 + 2 p35r9 + 2 p35r10
   + 2 p35r11 + 2 p35r12 + 10 p35r13 + 10 p35r14 + 2 p35r15 + 2 p35r16
   + 10 p35r17 + 2 p35r18 + 2 p35r19 + 8 p35r20 + 2 p35r21 + 2 p36r1
   + 2 p36r2 + 8 p36r3 + 8 p36r4 + 2 p36r5 + 2 p36r6 + 10 p36r7 + 2 p36r8
   + 2 p36r9 + 2 p36r10 + 2 p36r11 + 8 p36r12 + 2 p36r13 + 2 p36r14
   + 2 p36r15 + 2 p36r16 + 8 p36r17 + 2 p36r18 + 2 p36r19 + 8 p36r20
   + 2 p36r21 + 2 p37r1 + 10 p37r2 + 2 p37r3 + 2 p37r4 + 2 p37r5 + 8 p37r6
   + 2 p37r7 + 10 p37r8 + 2 p37r9 + 2 p37r10 + 2 p37r11 + 2 p37r12
   + 2 p37r13 + 2 p37r14 + 2 p37r15 + 2 p37r16 + 2 p37r17 + 2 p37r18
   + 2 p37r19 + 2 p37r20 + 10 p37r21 + 2 p38r1 + 2 p38r2 + 2 p38r3
   + 8 p38r4 + 2 p38r5 + 2 p38r6 + 2 p38r7 + 2 p38r8 + 8 p38r9 + 2 p38r10
   + 2 p38r11 + 2 p38r12 + 2 p38r13 + 2 p38r14 + 2 p38r15 + 10 p38r16
   + 2 p38r17 + 10 p38r18 + 2 p38r19 + 2 p38r20 + 2 p38r21 + 10 p39r1
   + 2 p39r2 + 8 p39r3 + 2 p39r4 + 8 p39r5 + 2 p39r6 + 2 p39r7 + 2 p39r8
   + 8 p39r9 + 2 p39r10 + 2 p39r11 + 2 p39r12 + 2 p39r13 + 2 p39r14
   + 2 p39r15 + 2 p39r16 + 2 p39r17 + 10 p39r18 + 2 p39r19 + 10 p39r20
   + 2 p39r21 + 2 p40r1 + 2 p40r2 + 10 p40r3 + 2 p40r4 + 2 p40r5 + 10 p40r6
   + 2 p40r7 + 10 p40r8 + 2 p40r9 + 10 p40r10 + 2 p40r11 + 2 p40r12
   + 2 p40r13 + 2 p40r14 + 8 p40r15 + 2 p40r16 + 2 p40r17 + 2 p40r18
   + 2 p40r19 + 2 p40r20 + 2 p40r21 + 2 p41r1 + 2 p41r2 + 2 p41r3 + 2 p41r4
   + 2 p41r5 + 2 p41r6 + 2 p41r7 + 10 p41r8 + 2 p41r9 + 2 p41r10 + 2 p41r11
   + 2 p41r12 + 2 p41r13 + 2 p41r14 + 2 p41r15 + 2 p41r16 + 2 p41r17
   + 2 p41r18 + 2 p41r19 + 2 p41r20 + 2 p41r21 + 2 p42r1 + 2 p42r2
   + 2 p42r3 + 2 p42r4 + 2 p42r5 + 2 p42r6 + 2 p42r7 + 2 p42r8 + 2 p42r9
   + 2 p42r10 + 2 p42r11 + 2 p42r12 + 2 p42r13 + 8 p42r14 + 2 p42r15
   + 2 p42r16 + 8 p42r17 + 2 p42r18 + 2 p42r19 + 2 p42r20 + 2 p42r21
   + 2 p43r1 + 2 p43r2 + 2 p43r3 + 2 p43r4 + 2 p43r5 + 2 p43r6 + 2 p43r7
   + 2 p43r8 + 10 p43r9 + 2 p43r10 + 2 p43r11 + 2 p43r12 + 2 p43r13
   + 2 p43r14 + 2 p43r15 + 2 p43r16 + 2 p43r17 + 2 p43r18 + 2 p43r19
   + 2 p43r20 + 2 p43r21 + 2 p44r1 + 10 p44r2 + 2 p44r3 + 2 p44r4 + 2 p44r5
   + 2 p44r6 + 2 p44r7 + 2 p44r8 + 2 p44r9 + 2 p44r10 + 2 p44r11 + 2 p44r12
   + 2 p44r13 + 2 p44r14 + 2 p44r15 + 2 p44r16 + 2 p44r17 + 2 p44r18
   + 2 p44r19 + 2 p44r20 + 8 p44r21 + 10 p45r1 + 2 p45r2 + 2 p45r3
   + 2 p45r4 + 2 p45r5 + 2 p45r6 + 2 p45r7 + 2 p45r8 + 8 p45r9 + 2 p45r10
   + 2 p45r11 + 2 p45r12 + 10 p45r13 + 2 p45r14 + 10 p45r15 + 2 p45r16
   + 2 p45r17 + 10 p45r18 + 2 p45r19 + 2 p45r20 + 2 p45r21 + 10 p46r1
   + 2 p46r2 + 2 p46r3 + 8 p46r4 + 2 p46r5 + 2 p46r6 + 10 p46r7 + 2 p46r8
   + 10 p46r9 + 8 p46r10 + 2 p46r11 + 8 p46r12 + 2 p46r13 + 10 p46r14
   + 8 p46r16 + 8 p46r17 + 8 p46r18 + 2 p46r19 + 2 p46r20 + 2 p46r21
   + 10 p47r1 + 2 p47r2 + 8 p47r3 + 2 p47r4 + 2 p47r5 + 2 p47r6 + 2 p47r7
   + 2 p47r8 + 2 p47r9 + 8 p47r10 + 2 p47r11 + 2 p47r12 + 2 p47r13
   + 8 p47r14 + 2 p47r15 + 2 p47r16 + 2 p47r17 + 2 p47r18 + 2 p47r19
   + 2 p47r20 + 2 p47r21 + 10 p48r1 + 2 p48r2 + 8 p48r3 + 2 p48r4 + 2 p48r5
   + 8 p48r6 + 2 p48r7 + 2 p48r8 + 2 p48r9 + 8 p48r10 + 2 p48r11 + 2 p48r12
   + 2 p48r13 + 10 p48r14 + 10 p48r15 + 8 p48r16 + 2 p48r17 + 2 p48r18
   + 2 p48r19 + 2 p48r20 + 2 p48r21 + 8 p49r1 + 2 p49r2 + 2 p49r3 + 2 p49r4
   + 8 p49r6 + 2 p49r7 + 2 p49r9 + 2 p49r11 + 2 p49r12 + 2 p49r13
   + 2 p49r15 + 2 p49r16 + 2 p49r17 + 2 p49r18 + 10 p49r19 + 2 p49r20
   + 2 p50r1 + 2 p50r2 + 2 p50r3 + 8 p50r4 + 2 p50r5 + 8 p50r6 + 2 p50r7
   + 2 p50r8 + 2 p50r9 + 2 p50r10 + 2 p50r11 + 2 p50r12 + 2 p50r13
   + 2 p50r14 + 2 p50r15 + 2 p50r16 + 2 p50r17 + 2 p50r18 + 2 p50r19
   + 2 p50r20 + 8 p50r21 + 8 p51r1 + 2 p51r2 + 10 p51r3 + 2 p51r4 + 8 p51r5
   + 2 p51r6 + 2 p51r7 + 2 p51r8 + 2 p51r9 + 2 p51r10 + 10 p51r11
   + 2 p51r12 + 10 p51r13 + 2 p51r14 + 2 p51r15 + 2 p51r16 + 2 p51r17
   + 2 p51r18 + 8 p51r20 + 10 p51r21 + 2 p52r1 + 10 p52r2 + 8 p52r3
   + 2 p52r4 + 10 p52r5 + 2 p52r6 + 10 p52r7 + 2 p52r8 + 2 p52r9 + 2 p52r10
   + 10 p52r11 + 2 p52r12 + 10 p52r13 + 2 p52r14 + 2 p52r15 + 2 p52r16
   + 2 p52r17 + 2 p52r18 + 10 p52r19 + 8 p52r20 + 8 p52r21 + 2 p53r1
   + 2 p53r2 + 10 p53r3 + 2 p53r4 + 10 p53r5 + 2 p53r6 + 2 p53r7 + 2 p53r8
   + 2 p53r9 + 2 p53r10 + 10 p53r11 + 2 p53r12 + 10 p53r13 + 2 p53r14
   + 2 p53r15 + 2 p53r16 + 2 p53r17 + 2 p53r18 + 2 p53r19 + 2 p53r20
   + 2 p53r21 + 2 p54r1 + 2 p54r2 + 2 p54r3 + 2 p54r4 + 2 p54r6 + 2 p54r7
   + 2 p54r9 + 10 p54r10 + 2 p54r11 + 2 p54r12 + 2 p54r13 + 2 p54r14
   + 2 p54r15 + 2 p54r16 + 2 p54r17 + 2 p54r18 + 2 p54r19 + 2 p54r20
   + 2 p54r21 + 10 p55r1 + 2 p55r2 + 2 p55r3 + 8 p55r4 + 10 p55r6 + 2 p55r7
   + 8 p55r9 + 10 p55r11 + 2 p55r12 + 8 p55r13 + 8 p55r15 + 10 p55r16
   + 8 p55r17 + 2 p55r18 + 10 p55r19 + 2 p55r20 + 2 p55r21 + 2 p56r1
   + 2 p56r2 + 2 p56r5 + 2 p56r6 + 2 p56r7 + 2 p56r8 + 2 p56r10 + 2 p56r11
   + 8 p56r12 + 2 p56r13 + 2 p56r14 + 2 p56r15 + 2 p56r16 + 2 p56r17
   + 10 p56r18 + 2 p56r19 + 2 p56r21 + 2 p57r1 + 2 p57r2 + 8 p57r3
   + 2 p57r4 + 2 p57r5 + 10 p57r6 + 10 p57r7 + 2 p57r8 + 2 p57r10
   + 2 p57r11 + 2 p57r12 + 2 p57r13 + 2 p57r14 + 2 p57r15 + 2 p57r16
   + 2 p57r17 + 2 p57r18 + 2 p57r19 + 2 p57r20 + 2 p57r21 + 2 p58r1
   + 2 p58r2 + 2 p58r3 + 8 p58r4 + 2 p58r5 + 10 p58r6 + 2 p58r7 + 10 p58r8
   + 2 p58r9 + 2 p58r10 + 2 p58r11 + 2 p58r12 + 2 p58r13 + 2 p58r14
   + 2 p58r15 + 2 p58r16 + 2 p58r17 + 2 p58r18 + 2 p58r19 + 2 p58r20
   + 2 p58r21 + 2 p59r1 + 2 p59r2 + 2 p59r3 + 10 p59r4 + 10 p59r5 + 8 p59r6
   + 10 p59r7 + 2 p59r8 + 2 p59r9 + 2 p59r10 + 10 p59r11 + 8 p59r12
   + 2 p59r13 + 2 p59r15 + 2 p59r16 + 2 p59r17 + 2 p59r18 + 2 p59r19
   + 8 p59r20 + 2 p59r21 + 2 p60r1 + 2 p60r2 + 2 p60r3 + 8 p60r4 + 2 p60r5
   + 2 p60r6 + 2 p60r7 + 2 p60r8 + 8 p60r9 + 2 p60r10 + 10 p60r11
   + 2 p60r12 + 2 p60r13 + 2 p60r14 + 2 p60r15 + 2 p60r16 + 2 p60r17
   + 2 p60r18 + 2 p60r19 + 8 p60r20 + 2 p60r21 + 2 p61r1 + 2 p61r2
   + 2 p61r3 + 10 p61r4 + 10 p61r5 + 2 p61r6 + 2 p61r7 + 2 p61r8 + 2 p61r9
   + 2 p61r10 + 2 p61r11 + 8 p61r12 + 2 p61r13 + 10 p61r14 + 2 p61r15
   + 2 p61r16 + 8 p61r17 + 2 p61r18 + 2 p61r19 + 8 p61r20 + 2 p61r21
   + 2 p62r1 + 10 p62r2 + 2 p62r3 + 2 p62r4 + 2 p62r5 + 10 p62r6 + 2 p62r7
   + 2 p62r8 + 2 p62r9 + 2 p62r10 + 2 p62r11 + 2 p62r12 + 2 p62r13
   + 2 p62r14 + 2 p62r15 + 2 p62r16 + 2 p62r17 + 2 p62r18 + 2 p62r19
   + 2 p62r20 + 2 p62r21 + 2 p63r1 + 10 p63r2 + 2 p63r3 + 2 p63r4
   + 10 p63r5 + 2 p63r6 + 2 p63r7 + 2 p63r8 + 2 p63r9 + 2 p63r10 + 2 p63r11
   + 2 p63r12 + 2 p63r13 + 2 p63r14 + 2 p63r15 + 2 p63r16 + 2 p63r17
   + 2 p63r18 + 2 p63r19 + 2 p63r20 + 2 p63r21 + 8 p64r1 + 2 p64r2
   + 2 p64r3 + 2 p64r4 + 2 p64r5 + 10 p64r6 + 10 p64r7 + 2 p64r8 + 8 p64r9
   + 8 p64r11 + 2 p64r12 + 2 p64r13 + 10 p64r14 + 2 p64r15 + 2 p64r16
   + 8 p64r17 + 2 p64r18 + 2 p64r19 + 2 p64r20 + 2 p65r1 + 2 p65r2
   + 2 p65r3 + 2 p65r4 + 2 p65r5 + 8 p65r6 + 2 p65r7 + 2 p65r8 + 8 p65r9
   + 2 p65r10 + 2 p65r11 + 2 p65r12 + 2 p65r13 + 2 p65r15 + 2 p65r16
   + 2 p65r17 + 10 p65r18 + 2 p65r19 + 8 p65r20 + 2 p65r21 + 2 p66r1
   + 10 p66r2 + 2 p66r3 + 2 p66r4 + 10 p66r5 + 10 p66r6 + 2 p66r7 + 2 p66r8
   + 2 p66r9 + 2 p66r10 + 2 p66r11 + 2 p66r12 + 2 p66r13 + 2 p66r16
   + 2 p66r17 + 2 p66r18 + 2 p66r19 + 8 p66r20 + 10 p66r21 + 8 p67r1
   + 2 p67r3 + 2 p67r4 + 2 p67r5 + 2 p67r6 + 2 p67r7 + 2 p67r8 + 2 p67r9
   + 2 p67r10 + 2 p67r11 + 2 p67r12 + 2 p67r13 + 2 p67r14 + 10 p67r16
   + 2 p67r17 + 2 p67r18 + 10 p67r19 + 2 p67r20 + 10 p67r21 + 2 p68r1
   + 2 p68r2 + 10 p68r3 + 2 p68r4 + 2 p68r5 + 8 p68r6 + 2 p68r7 + 2 p68r9
   + 8 p68r10 + 2 p68r11 + 2 p68r12 + 10 p68r13 + 2 p68r15 + 2 p68r17
   + 2 p68r18 + 10 p68r19 + 2 p68r20 + 2 p68r21 + 10 p69r1 + 2 p69r2
   + 2 p69r3 + 8 p69r4 + 2 p69r5 + 2 p69r6 + 2 p69r7 + 2 p69r8 + 2 p69r9
   + 2 p69r11 + 2 p69r12 + 10 p69r13 + 2 p69r14 + 2 p69r16 + 2 p69r17
   + 2 p69r18 + 2 p69r19 + 2 p69r20 + 10 p69r21 + 2 p70r1 + 10 p70r2
   + 2 p70r3 + 2 p70r4 + 8 p70r5 + 8 p70r6 + 2 p70r7 + 2 p70r8 + 2 p70r9
   + 2 p70r10 + 10 p70r11 + 2 p70r12 + 10 p70r13 + 2 p70r14 + 2 p70r15
   + 2 p70r16 + 2 p70r17 + 2 p70r18 + 2 p70r19 + 8 p70r20 + 10 p70r21
   + 2 p71r1 + 2 p71r2 + 2 p71r3 + 8 p71r4 + 2 p71r5 + 2 p71r6 + 2 p71r7
   + 10 p71r8 + 2 p71r9 + 2 p71r10 + 2 p71r11 + 2 p71r12 + 2 p71r13
   + 2 p71r14 + 2 p71r15 + 2 p71r16 + 2 p71r17 + 8 p71r18 + 2 p71r19
   + 8 p71r20 + 2 p71r21
Subject To
 t10: p1r1 + p1r2 + p1r3 + p1r4 + p1r5 + p1r6 + p1r7 + p1r8 + p1r9 + p1r10
   + p1r11 + p1r12 + p1r13 + p1r14 + p1r15 + p1r16 + p1r17 + p1r18 + p1r19
   + p1r20 + p1r21 = 3
 t11: p2r1 + p2r2 + p2r3 + p2r4 + p2r5 + p2r6 + p2r7 + p2r8 + p2r9 + p2r10
   + p2r11 + p2r12 + p2r13 + p2r14 + p2r15 + p2r16 + p2r17 + p2r18 + p2r19
   + p2r20 + p2r21 = 3
 t12: p3r1 + p3r2 + p3r3 + p3r4 + p3r5 + p3r6 + p3r7 + p3r8 + p3r9 + p3r10
   + p3r11 + p3r12 + p3r13 + p3r14 + p3r15 + p3r16 + p3r17 + p3r18 + p3r19
   + p3r20 + p3r21 = 3
 t13: p4r1 + p4r2 + p4r3 + p4r4 + p4r5 + p4r6 + p4r7 + p4r8 + p4r9 + p4r10
   + p4r11 + p4r12 + p4r13 + p4r14 + p4r15 + p4r16 + p4r17 + p4r18 + p4r19
   + p4r20 + p4r21 = 3
 t14: p5r1 + p5r2 + p5r3 + p5r4 + p5r5 + p5r6 + p5r7 + p5r8 + p5r9 + p5r10
   + p5r11 + p5r12 + p5r13 + p5r14 + p5r15 + p5r16 + p5r17 + p5r18 + p5r19
   + p5r20 + p5r21 = 3
 t15: p6r1 + p6r2 + p6r3 + p6r4 + p6r5 + p6r6 + p6r7 + p6r8 + p6r9 + p6r10
   + p6r11 + p6r12 + p6r13 + p6r14 + p6r15 + p6r16 + p6r17 + p6r18 + p6r19
   + p6r20 + p6r21 = 3
 t16: p7r1 + p7r2 + p7r3 + p7r4 + p7r5 + p7r6 + p7r7 + p7r8 + p7r9 + p7r10
   + p7r11 + p7r12 + p7r13 + p7r14 + p7r15 + p7r16 + p7r17 + p7r18 + p7r19
   + p7r20 + p7r21 = 3
 t17: p8r1 + p8r2 + p8r3 + p8r4 + p8r5 + p8r6 + p8r7 + p8r8 + p8r9 + p8r10
   + p8r11 + p8r12 + p8r13 + p8r14 + p8r15 + p8r16 + p8r17 + p8r18 + p8r19
   + p8r20 + p8r21 = 3
 t18: p9r1 + p9r2 + p9r3 + p9r4 + p9r5 + p9r6 + p9r7 + p9r8 + p9r9 + p9r10
   + p9r11 + p9r12 + p9r13 + p9r14 + p9r15 + p9r16 + p9r17 + p9r18 + p9r19
   + p9r20 + p9r21 = 3
 t19: p10r1 + p10r2 + p10r3 + p10r4 + p10r5 + p10r6 + p10r7 + p10r8 + p10r9
   + p10r10 + p10r11 + p10r12 + p10r13 + p10r14 + p10r15 + p10r16 + p10r17
   + p10r18 + p10r19 + p10r20 + p10r21 = 3
 t110: p11r1 + p11r2 + p11r3 + p11r4 + p11r5 + p11r6 + p11r7 + p11r8
   + p11r9 + p11r10 + p11r11 + p11r12 + p11r13 + p11r14 + p11r15 + p11r16
   + p11r17 + p11r18 + p11r19 + p11r20 + p11r21 = 3
 t111: p12r1 + p12r2 + p12r3 + p12r4 + p12r5 + p12r6 + p12r7 + p12r8
   + p12r9 + p12r10 + p12r11 + p12r12 + p12r13 + p12r14 + p12r15 + p12r16
   + p12r17 + p12r18 + p12r19 + p12r20 + p12r21 = 3
 t112: p13r1 + p13r2 + p13r3 + p13r4 + p13r5 + p13r6 + p13r7 + p13r8
   + p13r9 + p13r10 + p13r11 + p13r12 + p13r13 + p13r14 + p13r15 + p13r16
   + p13r17 + p13r18 + p13r19 + p13r20 + p13r21 = 3
 t113: p14r1 + p14r2 + p14r3 + p14r4 + p14r5 + p14r6 + p14r7 + p14r8
   + p14r9 + p14r10 + p14r11 + p14r12 + p14r13 + p14r14 + p14r15 + p14r16
   + p14r17 + p14r18 + p14r19 + p14r20 + p14r21 = 3
 t114: p15r1 + p15r2 + p15r3 + p15r4 + p15r5 + p15r6 + p15r7 + p15r8
   + p15r9 + p15r10 + p15r11 + p15r12 + p15r13 + p15r14 + p15r15 + p15r16
   + p15r17 + p15r18 + p15r19 + p15r20 + p15r21 = 3
 t115: p16r1 + p16r2 + p16r3 + p16r4 + p16r5 + p16r6 + p16r7 + p16r8
   + p16r9 + p16r10 + p16r11 + p16r12 + p16r13 + p16r14 + p16r15 + p16r16
   + p16r17 + p16r18 + p16r19 + p16r20 + p16r21 = 3
 t116: p17r1 + p17r2 + p17r3 + p17r4 + p17r5 + p17r6 + p17r7 + p17r8
   + p17r9 + p17r10 + p17r11 + p17r12 + p17r13 + p17r14 + p17r15 + p17r16
   + p17r17 + p17r18 + p17r19 + p17r20 + p17r21 = 3
 t117: p18r1 + p18r2 + p18r3 + p18r4 + p18r5 + p18r6 + p18r7 + p18r8
   + p18r9 + p18r10 + p18r11 + p18r12 + p18r13 + p18r14 + p18r15 + p18r16
   + p18r17 + p18r18 + p18r19 + p18r20 + p18r21 = 3
 t118: p19r1 + p19r2 + p19r3 + p19r4 + p19r5 + p19r6 + p19r7 + p19r8
   + p19r9 + p19r10 + p19r11 + p19r12 + p19r13 + p19r14 + p19r15 + p19r16
   + p19r17 + p19r18 + p19r19 + p19r20 + p19r21 = 3
 t119: p20r1 + p20r2 + p20r3 + p20r4 + p20r5 + p20r6 + p20r7 + p20r8
   + p20r9 + p20r10 + p20r11 + p20r12 + p20r13 + p20r14 + p20r15 + p20r16
   + p20r17 + p20r18 + p20r19 + p20r20 + p20r21 = 3
 t120: p21r1 + p21r2 + p21r3 + p21r4 + p21r5 + p21r6 + p21r7 + p21r8
   + p21r9 + p21r10 + p21r11 + p21r12 + p21r13 + p21r14 + p21r15 + p21r16
   + p21r17 + p21r18 + p21r19 + p21r20 + p21r21 = 3
 t121: p22r1 + p22r2 + p22r3 + p22r4 + p22r5 + p22r6 + p22r7 + p22r8
   + p22r9 + p22r10 + p22r11 + p22r12 + p22r13 + p22r14 + p22r15 + p22r16
   + p22r17 + p22r18 + p22r19 + p22r20 + p22r21 = 3
 t122: p23r1 + p23r2 + p23r3 + p23r4 + p23r5 + p23r6 + p23r7 + p23r8
   + p23r9 + p23r10 + p23r11 + p23r12 + p23r13 + p23r14 + p23r15 + p23r16
   + p23r17 + p23r18 + p23r19 + p23r20 + p23r21 = 3
 t123: p24r1 + p24r2 + p24r3 + p24r4 + p24r5 + p24r6 + p24r7 + p24r8
   + p24r9 + p24r10 + p24r11 + p24r12 + p24r13 + p24r14 + p24r15 + p24r16
   + p24r17 + p24r18 + p24r19 + p24r20 + p24r21 = 3
 t124: p25r1 + p25r2 + p25r3 + p25r4 + p25r5 + p25r6 + p25r7 + p25r8
   + p25r9 + p25r10 + p25r11 + p25r12 + p25r13 + p25r14 + p25r15 + p25r16
   + p25r17 + p25r18 + p25r19 + p25r20 + p25r21 = 3
 t125: p26r1 + p26r2 + p26r3 + p26r4 + p26r5 + p26r6 + p26r7 + p26r8
   + p26r9 + p26r10 + p26r11 + p26r12 + p26r13 + p26r14 + p26r15 + p26r16
   + p26r17 + p26r18 + p26r19 + p26r20 + p26r21 = 3
 t126: p27r1 + p27r2 + p27r3 + p27r4 + p27r5 + p27r6 + p27r7 + p27r8
   + p27r9 + p27r10 + p27r11 + p27r12 + p27r13 + p27r14 + p27r15 + p27r16
   + p27r17 + p27r18 + p27r19 + p27r20 + p27r21 = 3
 t127: p28r1 + p28r2 + p28r3 + p28r4 + p28r5 + p28r6 + p28r7 + p28r8
   + p28r9 + p28r10 + p28r11 + p28r12 + p28r13 + p28r14 + p28r15 + p28r16
   + p28r17 + p28r18 + p28r19 + p28r20 + p28r21 = 3
 t128: p29r1 + p29r2 + p29r3 + p29r4 + p29r5 + p29r6 + p29r7 + p29r8
   + p29r9 + p29r10 + p29r11 + p29r12 + p29r13 + p29r14 + p29r15 + p29r16
   + p29r17 + p29r18 + p29r19 + p29r20 + p29r21 = 3
 t129: p30r1 + p30r2 + p30r3 + p30r4 + p30r5 + p30r6 + p30r7 + p30r8
   + p30r9 + p30r10 + p30r11 + p30r12 + p30r13 + p30r14 + p30r15 + p30r16
   + p30r17 + p30r18 + p30r19 + p30r20 + p30r21 = 3
 t130: p31r1 + p31r2 + p31r3 + p31r4 + p31r5 + p31r6 + p31r7 + p31r8
   + p31r9 + p31r10 + p31r11 + p31r12 + p31r13 + p31r14 + p31r15 + p31r16
   + p31r17 + p31r18 + p31r19 + p31r20 + p31r21 = 3
 t131: p32r1 + p32r2 + p32r3 + p32r4 + p32r5 + p32r6 + p32r7 + p32r8
   + p32r9 + p32r10 + p32r11 + p32r12 + p32r13 + p32r14 + p32r15 + p32r16
   + p32r17 + p32r18 + p32r19 + p32r20 + p32r21 = 3
 t132: p33r1 + p33r2 + p33r3 + p33r4 + p33r5 + p33r6 + p33r7 + p33r8
   + p33r9 + p33r10 + p33r11 + p33r12 + p33r13 + p33r14 + p33r15 + p33r16
   + p33r17 + p33r18 + p33r19 + p33r20 + p33r21 = 3
 t133: p34r1 + p34r2 + p34r3 + p34r4 + p34r5 + p34r6 + p34r7 + p34r8
   + p34r9 + p34r10 + p34r11 + p34r12 + p34r13 + p34r14 + p34r15 + p34r16
   + p34r17 + p34r18 + p34r19 + p34r20 + p34r21 = 3
 t134: p35r1 + p35r2 + p35r3 + p35r4 + p35r5 + p35r6 + p35r7 + p35r8
   + p35r9 + p35r10 + p35r11 + p35r12 + p35r13 + p35r14 + p35r15 + p35r16
   + p35r17 + p35r18 + p35r19 + p35r20 + p35r21 = 3
 t135: p36r1 + p36r2 + p36r3 + p36r4 + p36r5 + p36r6 + p36r7 + p36r8
   + p36r9 + p36r10 + p36r11 + p36r12 + p36r13 + p36r14 + p36r15 + p36r16
   + p36r17 + p36r18 + p36r19 + p36r20 + p36r21 = 3
 t136: p37r1 + p37r2 + p37r3 + p37r4 + p37r5 + p37r6 + p37r7 + p37r8
   + p37r9 + p37r10 + p37r11 + p37r12 + p37r13 + p37r14 + p37r15 + p37r16
   + p37r17 + p37r18 + p37r19 + p37r20 + p37r21 = 3
 t137: p38r1 + p38r2 + p38r3 + p38r4 + p38r5 + p38r6 + p38r7 + p38r8
   + p38r9 + p38r10 + p38r11 + p38r12 + p38r13 + p38r14 + p38r15 + p38r16
   + p38r17 + p38r18 + p38r19 + p38r20 + p38r21 = 3
 t138: p39r1 + p39r2 + p39r3 + p39r4 + p39r5 + p39r6 + p39r7 + p39r8
   + p39r9 + p39r10 + p39r11 + p39r12 + p39r13 + p39r14 + p39r15 + p39r16
   + p39r17 + p39r18 + p39r19 + p39r20 + p39r21 = 3
 t139: p40r1 + p40r2 + p40r3 + p40r4 + p40r5 + p40r6 + p40r7 + p40r8
   + p40r9 + p40r10 + p40r11 + p40r12 + p40r13 + p40r14 + p40r15 + p40r16
   + p40r17 + p40r18 + p40r19 + p40r20 + p40r21 = 3
 t140: p41r1 + p41r2 + p41r3 + p41r4 + p41r5 + p41r6 + p41r7 + p41r8
   + p41r9 + p41r10 + p41r11 + p41r12 + p41r13 + p41r14 + p41r15 + p41r16
   + p41r17 + p41r18 + p41r19 + p41r20 + p41r21 = 3
 t141: p42r1 + p42r2 + p42r3 + p42r4 + p42r5 + p42r6 + p42r7 + p42r8
   + p42r9 + p42r10 + p42r11 + p42r12 + p42r13 + p42r14 + p42r15 + p42r16
   + p42r17 + p42r18 + p42r19 + p42r20 + p42r21 = 3
 t142: p43r1 + p43r2 + p43r3 + p43r4 + p43r5 + p43r6 + p43r7 + p43r8
   + p43r9 + p43r10 + p43r11 + p43r12 + p43r13 + p43r14 + p43r15 + p43r16
   + p43r17 + p43r18 + p43r19 + p43r20 + p43r21 = 3
 t143: p44r1 + p44r2 + p44r3 + p44r4 + p44r5 + p44r6 + p44r7 + p44r8
   + p44r9 + p44r10 + p44r11 + p44r12 + p44r13 + p44r14 + p44r15 + p44r16
   + p44r17 + p44r18 + p44r19 + p44r20 + p44r21 = 3
 t144: p45r1 + p45r2 + p45r3 + p45r4 + p45r5 + p45r6 + p45r7 + p45r8
   + p45r9 + p45r10 + p45r11 + p45r12 + p45r13 + p45r14 + p45r15 + p45r16
   + p45r17 + p45r18 + p45r19 + p45r20 + p45r21 = 3
 t145: p46r1 + p46r2 + p46r3 + p46r4 + p46r5 + p46r6 + p46r7 + p46r8
   + p46r9 + p46r10 + p46r11 + p46r12 + p46r13 + p46r14 + p46r15 + p46r16
   + p46r17 + p46r18 + p46r19 + p46r20 + p46r21 = 3
 t146: p47r1 + p47r2 + p47r3 + p47r4 + p47r5 + p47r6 + p47r7 + p47r8
   + p47r9 + p47r10 + p47r11 + p47r12 + p47r13 + p47r14 + p47r15 + p47r16
   + p47r17 + p47r18 + p47r19 + p47r20 + p47r21 = 3
 t147: p48r1 + p48r2 + p48r3 + p48r4 + p48r5 + p48r6 + p48r7 + p48r8
   + p48r9 + p48r10 + p48r11 + p48r12 + p48r13 + p48r14 + p48r15 + p48r16
   + p48r17 + p48r18 + p48r19 + p48r20 + p48r21 = 3
 t148: p49r1 + p49r2 + p49r3 + p49r4 + p49r5 + p49r6 + p49r7 + p49r8
   + p49r9 + p49r10 + p49r11 + p49r12 + p49r13 + p49r14 + p49r15 + p49r16
   + p49r17 + p49r18 + p49r19 + p49r20 + p49r21 = 3
 t149: p50r1 + p50r2 + p50r3 + p50r4 + p50r5 + p50r6 + p50r7 + p50r8
   + p50r9 + p50r10 + p50r11 + p50r12 + p50r13 + p50r14 + p50r15 + p50r16
   + p50r17 + p50r18 + p50r19 + p50r20 + p50r21 = 3
 t150: p51r1 + p51r2 + p51r3 + p51r4 + p51r5 + p51r6 + p51r7 + p51r8
   + p51r9 + p51r10 + p51r11 + p51r12 + p51r13 + p51r14 + p51r15 + p51r16
   + p51r17 + p51r18 + p51r19 + p51r20 + p51r21 = 3
 t151: p52r1 + p52r2 + p52r3 + p52r4 + p52r5 + p52r6 + p52r7 + p52r8
   + p52r9 + p52r10 + p52r11 + p52r12 + p52r13 + p52r14 + p52r15 + p52r16
   + p52r17 + p52r18 + p52r19 + p52r20 + p52r21 = 3
 t152: p53r1 + p53r2 + p53r3 + p53r4 + p53r5 + p53r6 + p53r7 + p53r8
   + p53r9 + p53r10 + p53r11 + p53r12 + p53r13 + p53r14 + p53r15 + p53r16
   + p53r17 + p53r18 + p53r19 + p53r20 + p53r21 = 3
 t153: p54r1 + p54r2 + p54r3 + p54r4 + p54r5 + p54r6 + p54r7 + p54r8
   + p54r9 + p54r10 + p54r11 + p54r12 + p54r13 + p54r14 + p54r15 + p54r16
   + p54r17 + p54r18 + p54r19 + p54r20 + p54r21 = 3
 t154: p55r1 + p55r2 + p55r3 + p55r4 + p55r5 + p55r6 + p55r7 + p55r8
   + p55r9 + p55r10 + p55r11 + p55r12 + p55r13 + p55r14 + p55r15 + p55r16
   + p55r17 + p55r18 + p55r19 + p55r20 + p55r21 = 3
 t155: p56r1 + p56r2 + p56r3 + p56r4 + p56r5 + p56r6 + p56r7 + p56r8
   + p56r9 + p56r10 + p56r11 + p56r12 + p56r13 + p56r14 + p56r15 + p56r16
   + p56r17 + p56r18 + p56r19 + p56r20 + p56r21 = 3
 t156: p57r1 + p57r2 + p57r3 + p57r4 + p57r5 + p57r6 + p57r7 + p57r8
   + p57r9 + p57r10 + p57r11 + p57r12 + p57r13 + p57r14 + p57r15 + p57r16
   + p57r17 + p57r18 + p57r19 + p57r20 + p57r21 = 3
 t157: p58r1 + p58r2 + p58r3 + p58r4 + p58r5 + p58r6 + p58r7 + p58r8
   + p58r9 + p58r10 + p58r11 + p58r12 + p58r13 + p58r14 + p58r15 + p58r16
   + p58r17 + p58r18 + p58r19 + p58r20 + p58r21 = 3
 t158: p59r1 + p59r2 + p59r3 + p59r4 + p59r5 + p59r6 + p59r7 + p59r8
   + p59r9 + p59r10 + p59r11 + p59r12 + p59r13 + p59r14 + p59r15 + p59r16
   + p59r17 + p59r18 + p59r19 + p59r20 + p59r21 = 3
 t159: p60r1 + p60r2 + p60r3 + p60r4 + p60r5 + p60r6 + p60r7 + p60r8
   + p60r9 + p60r10 + p60r11 + p60r12 + p60r13 + p60r14 + p60r15 + p60r16
   + p60r17 + p60r18 + p60r19 + p60r20 + p60r21 = 3
 t160: p61r1 + p61r2 + p61r3 + p61r4 + p61r5 + p61r6 + p61r7 + p61r8
   + p61r9 + p61r10 + p61r11 + p61r12 + p61r13 + p61r14 + p61r15 + p61r16
   + p61r17 + p61r18 + p61r19 + p61r20 + p61r21 = 3
 t161: p62r1 + p62r2 + p62r3 + p62r4 + p62r5 + p62r6 + p62r7 + p62r8
   + p62r9 + p62r10 + p62r11 + p62r12 + p62r13 + p62r14 + p62r15 + p62r16
   + p62r17 + p62r18 + p62r19 + p62r20 + p62r21 = 3
 t162: p63r1 + p63r2 + p63r3 + p63r4 + p63r5 + p63r6 + p63r7 + p63r8
   + p63r9 + p63r10 + p63r11 + p63r12 + p63r13 + p63r14 + p63r15 + p63r16
   + p63r17 + p63r18 + p63r19 + p63r20 + p63r21 = 3
 t163: p64r1 + p64r2 + p64r3 + p64r4 + p64r5 + p64r6 + p64r7 + p64r8
   + p64r9 + p64r10 + p64r11 + p64r12 + p64r13 + p64r14 + p64r15 + p64r16
   + p64r17 + p64r18 + p64r19 + p64r20 + p64r21 = 3
 t164: p65r1 + p65r2 + p65r3 + p65r4 + p65r5 + p65r6 + p65r7 + p65r8
   + p65r9 + p65r10 + p65r11 + p65r12 + p65r13 + p65r14 + p65r15 + p65r16
   + p65r17 + p65r18 + p65r19 + p65r20 + p65r21 = 3
 t165: p66r1 + p66r2 + p66r3 + p66r4 + p66r5 + p66r6 + p66r7 + p66r8
   + p66r9 + p66r10 + p66r11 + p66r12 + p66r13 + p66r14 + p66r15 + p66r16
   + p66r17 + p66r18 + p66r19 + p66r20 + p66r21 = 3
 t166: p67r1 + p67r2 + p67r3 + p67r4 + p67r5 + p67r6 + p67r7 + p67r8
   + p67r9 + p67r10 + p67r11 + p67r12 + p67r13 + p67r14 + p67r15 + p67r16
   + p67r17 + p67r18 + p67r19 + p67r20 + p67r21 = 3
 t167: p68r1 + p68r2 + p68r3 + p68r4 + p68r5 + p68r6 + p68r7 + p68r8
   + p68r9 + p68r10 + p68r11 + p68r12 + p68r13 + p68r14 + p68r15 + p68r16
   + p68r17 + p68r18 + p68r19 + p68r20 + p68r21 = 3
 t168: p69r1 + p69r2 + p69r3 + p69r4 + p69r5 + p69r6 + p69r7 + p69r8
   + p69r9 + p69r10 + p69r11 + p69r12 + p69r13 + p69r14 + p69r15 + p69r16
   + p69r17 + p69r18 + p69r19 + p69r20 + p69r21 = 3
 t169: p70r1 + p70r2 + p70r3 + p70r4 + p70r5 + p70r6 + p70r7 + p70r8
   + p70r9 + p70r10 + p70r11 + p70r12 + p70r13 + p70r14 + p70r15 + p70r16
   + p70r17 + p70r18 + p70r19 + p70r20 + p70r21 = 3
 t170: p71r1 + p71r2 + p71r3 + p71r4 + p71r5 + p71r6 + p71r7 + p71r8
   + p71r9 + p71r10 + p71r11 + p71r12 + p71r13 + p71r14 + p71r15 + p71r16
   + p71r17 + p71r18 + p71r19 + p71r20 + p71r21 = 3
Bounds
Binaries
 p1r1 p1r2 p1r3 p1r4 p1r5 p1r6 p1r7 p1r8 p1r9 p1r10 p1r11 p1r12 p1r13 p1r14
 p1r15 p1r16 p1r17 p1r18 p1r19 p1r20 p1r21 p2r1 p2r2 p2r3 p2r4 p2r5 p2r6
 p2r7 p2r8 p2r9 p2r10 p2r11 p2r12 p2r13 p2r14 p2r15 p2r16 p2r17 p2r18 p2r19
 p2r20 p2r21 p3r1 p3r2 p3r3 p3r4 p3r5 p3r6 p3r7 p3r8 p3r9 p3r10 p3r11 p3r12
 p3r13 p3r14 p3r15 p3r16 p3r17 p3r18 p3r19 p3r20 p3r21 p4r1 p4r2 p4r3 p4r4
 p4r5 p4r6 p4r7 p4r8 p4r9 p4r10 p4r11 p4r12 p4r13 p4r14 p4r15 p4r16 p4r17
 p4r18 p4r19 p4r20 p4r21 p5r1 p5r2 p5r3 p5r4 p5r5 p5r6 p5r7 p5r8 p5r9 p5r10
 p5r11 p5r12 p5r13 p5r14 p5r15 p5r16 p5r17 p5r18 p5r19 p5r20 p5r21 p6r1
 p6r2 p6r3 p6r4 p6r5 p6r6 p6r7 p6r8 p6r9 p6r10 p6r11 p6r12 p6r13 p6r14
 p6r15 p6r16 p6r17 p6r18 p6r19 p6r20 p6r21 p7r1 p7r2 p7r3 p7r4 p7r5 p7r6
 p7r7 p7r8 p7r9 p7r10 p7r11 p7r12 p7r13 p7r14 p7r15 p7r16 p7r17 p7r18 p7r19
 p7r20 p7r21 p8r1 p8r2 p8r3 p8r4 p8r5 p8r6 p8r7 p8r8 p8r9 p8r10 p8r11 p8r12
 p8r13 p8r14 p8r15 p8r16 p8r17 p8r18 p8r19 p8r20 p8r21 p9r1 p9r2 p9r3 p9r4
 p9r5 p9r6 p9r7 p9r8 p9r9 p9r10 p9r11 p9r12 p9r13 p9r14 p9r15 p9r16 p9r17
 p9r18 p9r19 p9r20 p9r21 p10r1 p10r2 p10r3 p10r4 p10r5 p10r6 p10r7 p10r8
 p10r9 p10r10 p10r11 p10r12 p10r13 p10r14 p10r15 p10r16 p10r17 p10r18
 p10r19 p10r20 p10r21 p11r1 p11r2 p11r3 p11r4 p11r5 p11r6 p11r7 p11r8 p11r9
 p11r10 p11r11 p11r12 p11r13 p11r14 p11r15 p11r16 p11r17 p11r18 p11r19
 p11r20 p11r21 p12r1 p12r2 p12r3 p12r4 p12r5 p12r6 p12r7 p12r8 p12r9 p12r10
 p12r11 p12r12 p12r13 p12r14 p12r15 p12r16 p12r17 p12r18 p12r19 p12r20
 p12r21 p13r1 p13r2 p13r3 p13r4 p13r5 p13r6 p13r7 p13r8 p13r9 p13r10 p13r11
 p13r12 p13r13 p13r14 p13r15 p13r16 p13r17 p13r18 p13r19 p13r20 p13r21
 p14r1 p14r2 p14r3 p14r4 p14r5 p14r6 p14r7 p14r8 p14r9 p14r10 p14r11 p14r12
 p14r13 p14r14 p14r15 p14r16 p14r17 p14r18 p14r19 p14r20 p14r21 p15r1 p15r2
 p15r3 p15r4 p15r5 p15r6 p15r7 p15r8 p15r9 p15r10 p15r11 p15r12 p15r13
 p15r14 p15r15 p15r16 p15r17 p15r18 p15r19 p15r20 p15r21 p16r1 p16r2 p16r3
 p16r4 p16r5 p16r6 p16r7 p16r8 p16r9 p16r10 p16r11 p16r12 p16r13 p16r14
 p16r15 p16r16 p16r17 p16r18 p16r19 p16r20 p16r21 p17r1 p17r2 p17r3 p17r4
 p17r5 p17r6 p17r7 p17r8 p17r9 p17r10 p17r11 p17r12 p17r13 p17r14 p17r15
 p17r16 p17r17 p17r18 p17r19 p17r20 p17r21 p18r1 p18r2 p18r3 p18r4 p18r5
 p18r6 p18r7 p18r8 p18r9 p18r10 p18r11 p18r12 p18r13 p18r14 p18r15 p18r16
 p18r17 p18r18 p18r19 p18r20 p18r21 p19r1 p19r2 p19r3 p19r4 p19r5 p19r6
 p19r7 p19r8 p19r9 p19r10 p19r11 p19r12 p19r13 p19r14 p19r15 p19r16 p19r17
 p19r18 p19r19 p19r20 p19r21 p20r1 p20r2 p20r3 p20r4 p20r5 p20r6 p20r7
 p20r8 p20r9 p20r10 p20r11 p20r12 p20r13 p20r14 p20r15 p20r16 p20r17 p20r18
 p20r19 p20r20 p20r21 p21r1 p21r2 p21r3 p21r4 p21r5 p21r6 p21r7 p21r8 p21r9
 p21r10 p21r11 p21r12 p21r13 p21r14 p21r15 p21r16 p21r17 p21r18 p21r19
 p21r20 p21r21 p22r1 p22r2 p22r3 p22r4 p22r5 p22r6 p22r7 p22r8 p22r9 p22r10
 p22r11 p22r12 p22r13 p22r14 p22r15 p22r16 p22r17 p22r18 p22r19 p22r20
 p22r21 p23r1 p23r2 p23r3 p23r4 p23r5 p23r6 p23r7 p23r8 p23r9 p23r10 p23r11
 p23r12 p23r13 p23r14 p23r15 p23r16 p23r17 p23r18 p23r19 p23r20 p23r21
 p24r1 p24r2 p24r3 p24r4 p24r5 p24r6 p24r7 p24r8 p24r9 p24r10 p24r11 p24r12
 p24r13 p24r14 p24r15 p24r16 p24r17 p24r18 p24r19 p24r20 p24r21 p25r1 p25r2
 p25r3 p25r4 p25r5 p25r6 p25r7 p25r8 p25r9 p25r10 p25r11 p25r12 p25r13
 p25r14 p25r15 p25r16 p25r17 p25r18 p25r19 p25r20 p25r21 p26r1 p26r2 p26r3
 p26r4 p26r5 p26r6 p26r7 p26r8 p26r9 p26r10 p26r11 p26r12 p26r13 p26r14
 p26r15 p26r16 p26r17 p26r18 p26r19 p26r20 p26r21 p27r1 p27r2 p27r3 p27r4
 p27r5 p27r6 p27r7 p27r8 p27r9 p27r10 p27r11 p27r12 p27r13 p27r14 p27r15
 p27r16 p27r17 p27r18 p27r19 p27r20 p27r21 p28r1 p28r2 p28r3 p28r4 p28r5
 p28r6 p28r7 p28r8 p28r9 p28r10 p28r11 p28r12 p28r13 p28r14 p28r15 p28r16
 p28r17 p28r18 p28r19 p28r20 p28r21 p29r1 p29r2 p29r3 p29r4 p29r5 p29r6
 p29r7 p29r8 p29r9 p29r10 p29r11 p29r12 p29r13 p29r14 p29r15 p29r16 p29r17
 p29r18 p29r19 p29r20 p29r21 p30r1 p30r2 p30r3 p30r4 p30r5 p30r6 p30r7
 p30r8 p30r9 p30r10 p30r11 p30r12 p30r13 p30r14 p30r15 p30r16 p30r17 p30r18
 p30r19 p30r20 p30r21 p31r1 p31r2 p31r3 p31r4 p31r5 p31r6 p31r7 p31r8 p31r9
 p31r10 p31r11 p31r12 p31r13 p31r14 p31r15 p31r16 p31r17 p31r18 p31r19
 p31r20 p31r21 p32r1 p32r2 p32r3 p32r4 p32r5 p32r6 p32r7 p32r8 p32r9 p32r10
 p32r11 p32r12 p32r13 p32r14 p32r15 p32r16 p32r17 p32r18 p32r19 p32r20
 p32r21 p33r1 p33r2 p33r3 p33r4 p33r5 p33r6 p33r7 p33r8 p33r9 p33r10 p33r11
 p33r12 p33r13 p33r14 p33r15 p33r16 p33r17 p33r18 p33r19 p33r20 p33r21
 p34r1 p34r2 p34r3 p34r4 p34r5 p34r6 p34r7 p34r8 p34r9 p34r10 p34r11 p34r12
 p34r13 p34r14 p34r15 p34r16 p34r17 p34r18 p34r19 p34r20 p34r21 p35r1 p35r2
 p35r3 p35r4 p35r5 p35r6 p35r7 p35r8 p35r9 p35r10 p35r11 p35r12 p35r13
 p35r14 p35r15 p35r16 p35r17 p35r18 p35r19 p35r20 p35r21 p36r1 p36r2 p36r3
 p36r4 p36r5 p36r6 p36r7 p36r8 p36r9 p36r10 p36r11 p36r12 p36r13 p36r14
 p36r15 p36r16 p36r17 p36r18 p36r19 p36r20 p36r21 p37r1 p37r2 p37r3 p37r4
 p37r5 p37r6 p37r7 p37r8 p37r9 p37r10 p37r11 p37r12 p37r13 p37r14 p37r15
 p37r16 p37r17 p37r18 p37r19 p37r20 p37r21 p38r1 p38r2 p38r3 p38r4 p38r5
 p38r6 p38r7 p38r8 p38r9 p38r10 p38r11 p38r12 p38r13 p38r14 p38r15 p38r16
 p38r17 p38r18 p38r19 p38r20 p38r21 p39r1 p39r2 p39r3 p39r4 p39r5 p39r6
 p39r7 p39r8 p39r9 p39r10 p39r11 p39r12 p39r13 p39r14 p39r15 p39r16 p39r17
 p39r18 p39r19 p39r20 p39r21 p40r1 p40r2 p40r3 p40r4 p40r5 p40r6 p40r7
 p40r8 p40r9 p40r10 p40r11 p40r12 p40r13 p40r14 p40r15 p40r16 p40r17 p40r18
 p40r19 p40r20 p40r21 p41r1 p41r2 p41r3 p41r4 p41r5 p41r6 p41r7 p41r8 p41r9
 p41r10 p41r11 p41r12 p41r13 p41r14 p41r15 p41r16 p41r17 p41r18 p41r19
 p41r20 p41r21 p42r1 p42r2 p42r3 p42r4 p42r5 p42r6 p42r7 p42r8 p42r9 p42r10
 p42r11 p42r12 p42r13 p42r14 p42r15 p42r16 p42r17 p42r18 p42r19 p42r20
 p42r21 p43r1 p43r2 p43r3 p43r4 p43r5 p43r6 p43r7 p43r8 p43r9 p43r10 p43r11
 p43r12 p43r13 p43r14 p43r15 p43r16 p43r17 p43r18 p43r19 p43r20 p43r21
 p44r1 p44r2 p44r3 p44r4 p44r5 p44r6 p44r7 p44r8 p44r9 p44r10 p44r11 p44r12
 p44r13 p44r14 p44r15 p44r16 p44r17 p44r18 p44r19 p44r20 p44r21 p45r1 p45r2
 p45r3 p45r4 p45r5 p45r6 p45r7 p45r8 p45r9 p45r10 p45r11 p45r12 p45r13
 p45r14 p45r15 p45r16 p45r17 p45r18 p45r19 p45r20 p45r21 p46r1 p46r2 p46r3
 p46r4 p46r5 p46r6 p46r7 p46r8 p46r9 p46r10 p46r11 p46r12 p46r13 p46r14
 p46r15 p46r16 p46r17 p46r18 p46r19 p46r20 p46r21 p47r1 p47r2 p47r3 p47r4
 p47r5 p47r6 p47r7 p47r8 p47r9 p47r10 p47r11 p47r12 p47r13 p47r14 p47r15
 p47r16 p47r17 p47r18 p47r19 p47r20 p47r21 p48r1 p48r2 p48r3 p48r4 p48r5
 p48r6 p48r7 p48r8 p48r9 p48r10 p48r11 p48r12 p48r13 p48r14 p48r15 p48r16
 p48r17 p48r18 p48r19 p48r20 p48r21 p49r1 p49r2 p49r3 p49r4 p49r5 p49r6
 p49r7 p49r8 p49r9 p49r10 p49r11 p49r12 p49r13 p49r14 p49r15 p49r16 p49r17
 p49r18 p49r19 p49r20 p49r21 p50r1 p50r2 p50r3 p50r4 p50r5 p50r6 p50r7
 p50r8 p50r9 p50r10 p50r11 p50r12 p50r13 p50r14 p50r15 p50r16 p50r17 p50r18
 p50r19 p50r20 p50r21 p51r1 p51r2 p51r3 p51r4 p51r5 p51r6 p51r7 p51r8 p51r9
 p51r10 p51r11 p51r12 p51r13 p51r14 p51r15 p51r16 p51r17 p51r18 p51r19
 p51r20 p51r21 p52r1 p52r2 p52r3 p52r4 p52r5 p52r6 p52r7 p52r8 p52r9 p52r10
 p52r11 p52r12 p52r13 p52r14 p52r15 p52r16 p52r17 p52r18 p52r19 p52r20
 p52r21 p53r1 p53r2 p53r3 p53r4 p53r5 p53r6 p53r7 p53r8 p53r9 p53r10 p53r11
 p53r12 p53r13 p53r14 p53r15 p53r16 p53r17 p53r18 p53r19 p53r20 p53r21
 p54r1 p54r2 p54r3 p54r4 p54r5 p54r6 p54r7 p54r8 p54r9 p54r10 p54r11 p54r12
 p54r13 p54r14 p54r15 p54r16 p54r17 p54r18 p54r19 p54r20 p54r21 p55r1 p55r2
 p55r3 p55r4 p55r5 p55r6 p55r7 p55r8 p55r9 p55r10 p55r11 p55r12 p55r13
 p55r14 p55r15 p55r16 p55r17 p55r18 p55r19 p55r20 p55r21 p56r1 p56r2 p56r3
 p56r4 p56r5 p56r6 p56r7 p56r8 p56r9 p56r10 p56r11 p56r12 p56r13 p56r14
 p56r15 p56r16 p56r17 p56r18 p56r19 p56r20 p56r21 p57r1 p57r2 p57r3 p57r4
 p57r5 p57r6 p57r7 p57r8 p57r9 p57r10 p57r11 p57r12 p57r13 p57r14 p57r15
 p57r16 p57r17 p57r18 p57r19 p57r20 p57r21 p58r1 p58r2 p58r3 p58r4 p58r5
 p58r6 p58r7 p58r8 p58r9 p58r10 p58r11 p58r12 p58r13 p58r14 p58r15 p58r16
 p58r17 p58r18 p58r19 p58r20 p58r21 p59r1 p59r2 p59r3 p59r4 p59r5 p59r6
 p59r7 p59r8 p59r9 p59r10 p59r11 p59r12 p59r13 p59r14 p59r15 p59r16 p59r17
 p59r18 p59r19 p59r20 p59r21 p60r1 p60r2 p60r3 p60r4 p60r5 p60r6 p60r7
 p60r8 p60r9 p60r10 p60r11 p60r12 p60r13 p60r14 p60r15 p60r16 p60r17 p60r18
 p60r19 p60r20 p60r21 p61r1 p61r2 p61r3 p61r4 p61r5 p61r6 p61r7 p61r8 p61r9
 p61r10 p61r11 p61r12 p61r13 p61r14 p61r15 p61r16 p61r17 p61r18 p61r19
 p61r20 p61r21 p62r1 p62r2 p62r3 p62r4 p62r5 p62r6 p62r7 p62r8 p62r9 p62r10
 p62r11 p62r12 p62r13 p62r14 p62r15 p62r16 p62r17 p62r18 p62r19 p62r20
 p62r21 p63r1 p63r2 p63r3 p63r4 p63r5 p63r6 p63r7 p63r8 p63r9 p63r10 p63r11
 p63r12 p63r13 p63r14 p63r15 p63r16 p63r17 p63r18 p63r19 p63r20 p63r21
 p64r1 p64r2 p64r3 p64r4 p64r5 p64r6 p64r7 p64r8 p64r9 p64r10 p64r11 p64r12
 p64r13 p64r14 p64r15 p64r16 p64r17 p64r18 p64r19 p64r20 p64r21 p65r1 p65r2
 p65r3 p65r4 p65r5 p65r6 p65r7 p65r8 p65r9 p65r10 p65r11 p65r12 p65r13
 p65r14 p65r15 p65r16 p65r17 p65r18 p65r19 p65r20 p65r21 p66r1 p66r2 p66r3
 p66r4 p66r5 p66r6 p66r7 p66r8 p66r9 p66r10 p66r11 p66r12 p66r13 p66r14
 p66r15 p66r16 p66r17 p66r18 p66r19 p66r20 p66r21 p67r1 p67r2 p67r3 p67r4
 p67r5 p67r6 p67r7 p67r8 p67r9 p67r10 p67r11 p67r12 p67r13 p67r14 p67r15
 p67r16 p67r17 p67r18 p67r19 p67r20 p67r21 p68r1 p68r2 p68r3 p68r4 p68r5
 p68r6 p68r7 p68r8 p68r9 p68r10 p68r11 p68r12 p68r13 p68r14 p68r15 p68r16
 p68r17 p68r18 p68r19 p68r20 p68r21 p69r1 p69r2 p69r3 p69r4 p69r5 p69r6
 p69r7 p69r8 p69r9 p69r10 p69r11 p69r12 p69r13 p69r14 p69r15 p69r16 p69r17
 p69r18 p69r19 p69r20 p69r21 p70r1 p70r2 p70r3 p70r4 p70r5 p70r6 p70r7
 p70r8 p70r9 p70r10 p70r11 p70r12 p70r13 p70r14 p70r15 p70r16 p70r17 p70r18
 p70r19 p70r20 p70r21 p71r1 p71r2 p71r3 p71r4 p71r5 p71r6 p71r7 p71r8 p71r9
 p71r10 p71r11 p71r12 p71r13 p71r14 p71r15 p71r16 p71r17 p71r18 p71r19
 p71r20 p71r21
End
